<?xml version = "1.0" standalone="yes"?>
<!-- This file has been generated by DOcplex version 2.23.222  -->
<CPLEXSolution version="1.0">
 <header
   problemName="CVRP"
   objectiveValue="15500.6"
  />
 <variables>
  <variable name="x_0_1" index="0" value="1.00000"/>
  <variable name="x_0_3" index="2" value="1.00000"/>
  <variable name="x_0_5" index="4" value="1.00000"/>
  <variable name="x_0_6" index="5" value="1.00000"/>
  <variable name="x_0_7" index="6" value="1.00000"/>
  <variable name="x_0_11" index="10" value="1.00000"/>
  <variable name="x_0_12" index="11" value="1.00000"/>
  <variable name="x_0_15" index="14" value="1.00000"/>
  <variable name="x_0_17" index="16" value="1.00000"/>
  <variable name="x_1_9" index="26" value="1.00000"/>
  <variable name="x_2_0" index="36" value="1.00000"/>
  <variable name="x_3_18" index="71" value="1.00000"/>
  <variable name="x_4_0" index="72" value="1.00000"/>
  <variable name="x_5_2" index="92" value="1.00000"/>
  <variable name="x_6_13" index="120" value="1.00000"/>
  <variable name="x_7_4" index="130" value="1.00000"/>
  <variable name="x_8_0" index="144" value="1.00000"/>
  <variable name="x_9_0" index="162" value="1.00000"/>
  <variable name="x_10_0" index="180" value="1.00000"/>
  <variable name="x_11_16" index="213" value="1.00000"/>
  <variable name="x_12_0" index="216" value="1.00000"/>
  <variable name="x_13_8" index="242" value="1.00000"/>
  <variable name="x_14_0" index="252" value="1.00000"/>
  <variable name="x_15_14" index="284" value="1.00000"/>
  <variable name="x_16_0" index="288" value="1.00000"/>
  <variable name="x_17_0" index="306" value="1.00000"/>
  <variable name="x_18_10" index="334" value="1.00000"/>
  <variable name="u_1" index="342" value="64.00000"/>
  <variable name="u_2" index="343" value="56.00000"/>
  <variable name="u_3" index="344" value="47.00000"/>
  <variable name="u_4" index="345" value="70.00000"/>
  <variable name="u_5" index="346" value="54.00000"/>
  <variable name="u_6" index="347" value="59.00000"/>
  <variable name="u_7" index="348" value="38.00000"/>
  <variable name="u_8" index="349" value="69.00000"/>
  <variable name="u_9" index="350" value="75.00000"/>
  <variable name="u_10" index="351" value="75.00000"/>
  <variable name="u_11" index="352" value="8.00000"/>
  <variable name="u_12" index="353" value="45.00000"/>
  <variable name="u_13" index="354" value="68.00000"/>
  <variable name="u_14" index="355" value="68.00000"/>
  <variable name="u_15" index="356" value="63.00000"/>
  <variable name="u_16" index="357" value="67.00000"/>
  <variable name="u_17" index="358" value="62.00000"/>
  <variable name="u_18" index="359" value="67.00000"/>
 </variables>
</CPLEXSolution>
